NAME          
ROWS
 N  OBJ
 L  c1
COLUMNS
    MARKER    'MARKER'                 'INTORG'
    x[1]      c1        130
    x[1]      OBJ       -716
    x[2]      c1        865
    x[2]      OBJ       -360
    x[3]      c1        301
    x[3]      OBJ       -737
    x[4]      c1        900
    x[4]      OBJ       -502
    x[5]      c1        335
    x[5]      OBJ       -373
    x[6]      c1        133
    x[6]      OBJ       -291
    x[7]      c1        917
    x[7]      OBJ       -913
    x[8]      c1        223
    x[8]      OBJ       -218
    x[9]      c1        950
    x[9]      OBJ       -465
    x[10]     c1        52
    x[10]     OBJ       -178
    x[11]     c1        105
    x[11]     OBJ       -416
    x[12]     c1        134
    x[12]     OBJ       -814
    x[13]     c1        24
    x[13]     OBJ       -413
    x[14]     c1        552
    x[14]     OBJ       -277
    x[15]     c1        500
    x[15]     OBJ       -747
    x[16]     c1        106
    x[16]     OBJ       -566
    x[17]     c1        234
    x[17]     OBJ       -650
    x[18]     c1        693
    x[18]     OBJ       -252
    x[19]     c1        207
    x[19]     OBJ       -838
    x[20]     c1        510
    x[20]     OBJ       -52
    x[21]     c1        624
    x[21]     OBJ       -141
    x[22]     c1        225
    x[22]     OBJ       -193
    x[23]     c1        834
    x[23]     OBJ       -403
    x[24]     c1        702
    x[24]     OBJ       -786
    x[25]     c1        771
    x[25]     OBJ       -97
    x[26]     c1        11
    x[26]     OBJ       -818
    x[27]     c1        193
    x[27]     OBJ       -55
    x[28]     c1        665
    x[28]     OBJ       -559
    x[29]     c1        998
    x[29]     OBJ       -966
    x[30]     c1        360
    x[30]     OBJ       -161
RHS
    rhs       c1        6627
RANGES
BOUNDS
 BV bounds    x[1]
 BV bounds    x[2]
 BV bounds    x[3]
 BV bounds    x[4]
 BV bounds    x[5]
 BV bounds    x[6]
 BV bounds    x[7]
 BV bounds    x[8]
 BV bounds    x[9]
 BV bounds    x[10]
 BV bounds    x[11]
 BV bounds    x[12]
 BV bounds    x[13]
 BV bounds    x[14]
 BV bounds    x[15]
 BV bounds    x[16]
 BV bounds    x[17]
 BV bounds    x[18]
 BV bounds    x[19]
 BV bounds    x[20]
 BV bounds    x[21]
 BV bounds    x[22]
 BV bounds    x[23]
 BV bounds    x[24]
 BV bounds    x[25]
 BV bounds    x[26]
 BV bounds    x[27]
 BV bounds    x[28]
 BV bounds    x[29]
 BV bounds    x[30]
ENDATA
